/*********************************************
 * OPL 12.6.3.0 Data
 * Author: pt428
 * Creation Date: 24 May 2018 at 11:23:58
 *********************************************/




TOMSh = 0.03;
DOMSh = 0.03;

//eps_reg = 0.3333333;
//eps_urbrur = 0.3333333;
eps_reg = 0;
eps_urbrur = 0;
indexPoint = 1;

eps_em = 1;
MaxVol = 0.15;
PDemRt = 0.000162155;
RM = 1.5;
CLkV = 0.99;
OGAddInv = 0.5;  
MaxShSol = 0.2;
MaxTransLine = 0.25;
CFTrans = 0.9;
MinTransLine = 28; //changed
MaxSol = 1000;
nonBeeTransLine = 1.2;
cumTransLineLengthMax = 1000;
GenEff = 0.99;

//load indices
Cell = {
Buikwe
Jinja_
Kampal
Kamuli
Kayung
Luwero
Mukono
Nakase
Nakaso
Wakiso
};

ConnectedCell = {
Buikwe
Jinja_
Kampal
Mukono
Wakiso
};

NonConnectedCell = {
Kamuli
Kayung
Luwero
Nakase
Nakaso
};

GenTech = {
Biomass
GasDomestic
GasImported
Geothermal
Hydro
HydroOff
Imports
Nuclear
Oil
SolarOffHigh
SolarOffLow
SolarOffMed
SolarPVHigh
SolarPVLow
SolarPVMed
SolarThermalHigh
SolarThermalMed
Wind6
Wind7
Wind8
};

TransLine = {
Trans_Buikwe_Jinja_
Trans_Buikwe_Kayung
Trans_Buikwe_Mukono
Trans_Jinja__Buikwe
Trans_Jinja__Kamuli
Trans_Jinja__Kayung
Trans_Kampal_Mukono
Trans_Kampal_Wakiso
Trans_Kamuli_Jinja_
Trans_Kamuli_Kayung
Trans_Kayung_Buikwe
Trans_Kayung_Jinja_
Trans_Kayung_Kamuli
Trans_Kayung_Luwero
Trans_Kayung_Mukono
Trans_Kayung_Nakaso
Trans_Luwero_Kayung
Trans_Luwero_Mukono
Trans_Luwero_Nakase
Trans_Luwero_Nakaso
Trans_Luwero_Wakiso
Trans_Mukono_Buikwe
Trans_Mukono_Kampal
Trans_Mukono_Kayung
Trans_Mukono_Luwero
Trans_Mukono_Wakiso
Trans_Nakase_Luwero
Trans_Nakase_Nakaso
Trans_Nakase_Wakiso
Trans_Nakaso_Kayung
Trans_Nakaso_Luwero
Trans_Nakaso_Nakase
Trans_Wakiso_Kampal
Trans_Wakiso_Luwero
Trans_Wakiso_Mukono
Trans_Wakiso_Nakase
};

Time = {
"2020"
"2025"
"2030"
"2035"
"2040"
};

AllTime = {
"2020"
"2021"
"2022"
"2023"
"2024"
"2025"
"2026"
"2027"
"2028"
"2029"
"2030"
"2031"
"2032"
"2033"
"2034"
"2035"
"2036"
"2037"
"2038"
"2039"
"2040"
};

Plant = {
BuikweBiomass
BuikweSolarOffLow
BuikweSolarOffMed
BuikweSolarPVLow
BuikweSolarPVMed
BuikweSolarThermalMed
Jinja_Biomass
Jinja_Hydro
Jinja_SolarOffMed
Jinja_SolarPVMed
KampalSolarOffLow
KampalSolarPVLow
KamuliBiomass
KamuliHydroOff
KamuliSolarOffMed
KamuliSolarPVMed
KayungBiomass
KayungHydroOff
KayungSolarOffLow
KayungSolarOffMed
KayungSolarPVLow
KayungSolarPVMed
KayungSolarThermalMed
LuweroBiomass
LuweroSolarOffLow
LuweroSolarOffMed
LuweroSolarPVLow
LuweroSolarPVMed
MukonoHydroOff
MukonoOil
MukonoSolarOffLow
MukonoSolarOffMed
MukonoSolarPVLow
MukonoSolarPVMed
MukonoSolarThermalMed
NakaseBiomass
NakaseHydroOff
NakaseSolarOffLow
NakaseSolarOffMed
NakaseSolarPVLow
NakaseSolarPVMed
NakasoBiomass
NakasoSolarOffLow
NakasoSolarOffMed
NakasoSolarPVLow
NakasoSolarPVMed
NakasoSolarThermalMed
WakisoSolarOffLow
WakisoSolarPVLow
};

OneTimePlant = {
BuikweBiomass
Jinja_Biomass
Jinja_Hydro
KamuliBiomass
KayungBiomass
LuweroBiomass
MukonoOil
NakaseBiomass
NakasoBiomass
};

ConnectedPlant = {
BuikweBiomass
BuikweSolarPVLow
BuikweSolarPVMed
BuikweSolarThermalMed
Jinja_Biomass
Jinja_Hydro
Jinja_SolarPVMed
KampalSolarPVLow
KamuliBiomass
KamuliSolarPVMed
KayungBiomass
KayungSolarPVLow
KayungSolarPVMed
KayungSolarThermalMed
LuweroBiomass
LuweroSolarPVLow
LuweroSolarPVMed
MukonoOil
MukonoSolarPVLow
MukonoSolarPVMed
MukonoSolarThermalMed
NakaseBiomass
NakaseSolarPVLow
NakaseSolarPVMed
NakasoBiomass
NakasoSolarPVLow
NakasoSolarPVMed
NakasoSolarThermalMed
WakisoSolarPVLow
};

VolatilePlant = {
BuikweSolarPVLow
BuikweSolarPVMed
Jinja_SolarPVMed
KampalSolarPVLow
KamuliSolarPVMed
KayungSolarPVLow
KayungSolarPVMed
LuweroSolarPVLow
LuweroSolarPVMed
MukonoSolarPVLow
MukonoSolarPVMed
NakaseSolarPVLow
NakaseSolarPVMed
NakasoSolarPVLow
NakasoSolarPVMed
WakisoSolarPVLow
};

OffGridPlant = {
BuikweSolarOffLow
BuikweSolarOffMed
Jinja_SolarOffMed
KampalSolarOffLow
KamuliHydroOff
KamuliSolarOffMed
KayungHydroOff
KayungSolarOffLow
KayungSolarOffMed
LuweroSolarOffLow
LuweroSolarOffMed
MukonoHydroOff
MukonoSolarOffLow
MukonoSolarOffMed
NakaseHydroOff
NakaseSolarOffLow
NakaseSolarOffMed
NakasoSolarOffLow
NakasoSolarOffMed
WakisoSolarOffLow
};

ConnectedSolarPlant = {
BuikweSolarPVLow
BuikweSolarPVMed
BuikweSolarThermalMed
Jinja_SolarPVMed
KampalSolarPVLow
KamuliSolarPVMed
KayungSolarPVLow
KayungSolarPVMed
KayungSolarThermalMed
LuweroSolarPVLow
LuweroSolarPVMed
MukonoSolarPVLow
MukonoSolarPVMed
MukonoSolarThermalMed
NakaseSolarPVLow
NakaseSolarPVMed
NakasoSolarPVLow
NakasoSolarPVMed
NakasoSolarThermalMed
WakisoSolarPVLow
};

ConnectedNonSolarPlant = {
BuikweBiomass
Jinja_Biomass
Jinja_Hydro
KamuliBiomass
KayungBiomass
LuweroBiomass
MukonoOil
NakaseBiomass
NakasoBiomass
};

Line = {
Buikwe_Jinja_
Buikwe_Kayung
Buikwe_Mukono
Jinja__Kamuli
Jinja__Kayung
Kampal_Mukono
Kampal_Wakiso
Kamuli_Kayung
Kayung_Luwero
Kayung_Mukono
Kayung_Nakaso
Luwero_Mukono
Luwero_Nakase
Luwero_Nakaso
Luwero_Wakiso
Mukono_Wakiso
Nakase_Nakaso
Nakase_Wakiso
};

NonExistLine = {
Buikwe_Kayung
Jinja__Kamuli
Jinja__Kayung
Kampal_Mukono
Kamuli_Kayung
Kayung_Luwero
Kayung_Mukono
Kayung_Nakaso
Luwero_Mukono
Luwero_Nakase
Luwero_Nakaso
Luwero_Wakiso
Nakase_Nakaso
Nakase_Wakiso
};

ExistLine = {
Buikwe_Jinja_
Buikwe_Mukono
Kampal_Wakiso
Mukono_Wakiso
};

ConnectedPlantNotconnectedDistrict = {
KamuliBiomass
KamuliSolarPVMed
KayungBiomass
KayungSolarPVLow
KayungSolarPVMed
KayungSolarThermalMed
LuweroBiomass
LuweroSolarPVLow
LuweroSolarPVMed
NakaseBiomass
NakaseSolarPVLow
NakaseSolarPVMed
NakasoBiomass
NakasoSolarPVLow
NakasoSolarPVMed
NakasoSolarThermalMed
};


//Supply
SupInput = [
0
0
0
0
0
5331.1558
5331.1558
5331.1558
5331.1558
5331.1558
6497.28466
6497.28466
6497.28466
6497.28466
6497.28466
5331.1558
5331.1558
5331.1558
5331.1558
5331.1558
6497.3135
6497.3135
6497.3135
6497.3135
6497.3135
4331.5424
4331.5424
4331.5424
4331.5424
4331.5424
2.117853
2.117853
2.117853
2.117853
2.117853
330
330
330
330
330
6085.160077
6085.160077
6085.160077
6085.160077
6085.160077
6085.1903
6085.1903
6085.1903
6085.1903
6085.1903
1811.9392
1811.9392
1811.9392
1811.9392
1811.9392
1811.9392
1811.9392
1811.9392
1811.9392
1811.9392
4.7666911
4.7666911
4.7666911
4.7666911
4.7666911
0.11508862
0.11508862
0.11508862
0.11508862
0.11508862
13969.9752
13969.9752
13969.9752
13969.9752
13969.9752
13970.034
13970.034
13970.034
13970.034
13970.034
4.9415518
4.9415518
4.9415518
4.9415518
4.9415518
0.07938367
0.07938367
0.07938367
0.07938367
0.07938367
1030.9161
1030.9161
1030.9161
1030.9161
1030.9161
13369.14743
13369.14743
13369.14743
13369.14743
13369.14743
1030.9161
1030.9161
1030.9161
1030.9161
1030.9161
13369.186
13369.186
13369.186
13369.186
13369.186
8912.7905
8912.7905
8912.7905
8912.7905
8912.7905
6.9962291
6.9962291
6.9962291
6.9962291
6.9962291
17286.879
17286.879
17286.879
17286.879
17286.879
3931.210881
3931.210881
3931.210881
3931.210881
3931.210881
17286.879
17286.879
17286.879
17286.879
17286.879
3931.2443
3931.2443
3931.2443
3931.2443
3931.2443
0.0536826
0.0536826
0.0536826
0.0536826
0.0536826
0
0
0
0
0
18503.634
18503.634
18503.634
18503.634
18503.634
464.5174268
464.5174268
464.5174268
464.5174268
464.5174268
18503.634
18503.634
18503.634
18503.634
18503.634
464.5586
464.5586
464.5586
464.5586
464.5586
309.70573
309.70573
309.70573
309.70573
309.70573
10.70481
10.70481
10.70481
10.70481
10.70481
0.02078066
0.02078066
0.02078066
0.02078066
0.02078066
22613.253
22613.253
22613.253
22613.253
22613.253
10208.51041
10208.51041
10208.51041
10208.51041
10208.51041
22613.253
22613.253
22613.253
22613.253
22613.253
10208.527
10208.527
10208.527
10208.527
10208.527
10.570365
10.570365
10.570365
10.570365
10.570365
982.21747
982.21747
982.21747
982.21747
982.21747
28559.44203
28559.44203
28559.44203
28559.44203
28559.44203
982.21747
982.21747
982.21747
982.21747
982.21747
28559.46
28559.46
28559.46
28559.46
28559.46
19039.64
19039.64
19039.64
19039.64
19039.64
19134.666
19134.666
19134.666
19134.666
19134.666
19134.666
19134.666
19134.666
19134.666
19134.666
];

ExSupInput = [
9.5
9.5
9.5
9.5
9.5
0
0
0
0
0
0.028840029
0.028840029
0.028840029
0.028840029
0.028840029
0
0
0
0
0
0
0
0
0
0
0
0
0
0
0
51
51
51
51
51
448
448
448
448
448
0.030223116
0.030223116
0.030223116
0.030223116
0.030223116
0
0
0
0
0
0
0
0
0
0
0
0
0
0
0
0
0
0
0
0
0
0
0
0
0
0.058803043
0.058803043
0.058803043
0.058803043
0.058803043
0
0
0
0
0
0
0
0
0
0
0
0
0
0
0
0
0
0
0
0
0.03856604
0.03856604
0.03856604
0.03856604
0.03856604
0
0
0
0
0
0
0
0
0
0
0
0
0
0
0
0
0
0
0
0
0
0
0
0
0
0.03341858
0.03341858
0.03341858
0.03341858
0.03341858
0
0
0
0
0
0
0
0
0
0
0
0
0
0
0
49
49
49
49
49
0
0
0
0
0
0.041173158
0.041173158
0.041173158
0.041173158
0.041173158
0
0
0
0
0
0
0
0
0
0
0
0
0
0
0
0
0
0
0
0
0
0
0
0
0
0
0
0
0
0
0.016587553
0.016587553
0.016587553
0.016587553
0.016587553
0
0
0
0
0
0
0
0
0
0
0
0
0
0
0
0
0
0
0
0
0.017966829
0.017966829
0.017966829
0.017966829
0.017966829
0
0
0
0
0
0
0
0
0
0
0
0
0
0
0
0
0
0
0
0
0
0
0
0
0
];

CFInput = [
0.5
0.25
0.275
0.2
0.225
0.45
0.5
0.5
0.275
0.225
0.25
0.2
0.5
0.5
0.275
0.225
0.5
0.5
0.25
0.275
0.2
0.225
0.45
0.5
0.25
0.275
0.2
0.225
0.5
0.8
0.25
0.275
0.2
0.225
0.45
0.5
0.5
0.25
0.275
0.2
0.225
0.5
0.25
0.275
0.2
0.225
0.45
0.25
0.2
];

MinSizeInput = [
0
0
0
9.9999999
9.9999999
49.9999995
2.117852979
199.999998
0
9.9999999
0
9.9999999
4.766691052
0
0
9.9999999
4.941551751
0
0
0
9.9999999
9.9999999
49.9999995
4.99999995
0
0
9.9999999
9.9999999
0
0
0
0
9.9999999
9.9999999
49.9999995
4.99999995
0
0
0
9.9999999
9.9999999
4.99999995
0
0
9.9999999
9.9999999
49.9999995
0
9.9999999
];


//Demand
DemBusInput = [
107.6804075
247.2925803
388.063003
558.1527229
714.212968
94.16399857
216.2515883
339.3520378
488.0915129
624.5625603
1254.592855
3096.026274
5123.883427
7642.764637
9996.069493
13.05746113
29.9870086
47.05700649
67.68229928
86.60635981
19.58656001
44.98135899
70.58683702
101.5253574
129.9119818
70.81674665
162.6336365
255.2122488
367.0728922
469.7069684
119.3374565
274.0634972
430.0731694
618.576112
791.530817
28.99087851
66.57877199
104.4785022
150.2718912
192.2881051
18.28118232
41.98350361
65.8824649
94.75903628
121.2537896
871.4066995
2001.222147
3140.410739
4516.866512
5779.788376
];

DemUInput = [
31.1539344
39.5627824
50.241288
63.8020608
81.0230608
27.2433872
34.5967296
43.9348336
55.7934112
70.8527744
362.976928
495.313744
663.37296
873.639264
1133.992496
3.77776512
4.79743264
6.0923216
7.73671792
9.82495792
5.66675424
7.19628432
9.13865424
11.60529504
14.73771392
20.4885952
26.0187312
33.0415216
41.9598544
53.2853616
34.5265344
43.8456928
55.6802112
70.7090176
89.7942944
8.3875976
10.6515184
13.5265008
17.1774784
21.8139008
5.28908432
6.71667632
8.52959408
10.83184144
13.75549536
252.1140827
320.1629271
406.5790327
516.3199605
655.6813808
];

DemRInput = [
53.6733216
60.7327296
67.556272
73.3159648
77.4064784
55.3145872
62.5898624
69.6220592
75.5578768
79.7734736
0.00016
0.00016
0.00016
0.00016
0.00016
87.3855408
98.8789632
109.9883712
119.365728
126.0254944
63.5464288
71.9044016
79.98312
86.8022976
91.645256
60.463256
68.4157136
76.1024656
82.5907872
87.1987712
80.9667632
91.6159536
101.909336
110.5978928
116.7684768
29.2836704
33.1352192
36.85808
40.0005152
42.2322624
29.0428896
32.8627696
36.5550208
39.6716176
41.8850144
152.0748577
171.5994271
190.189364
205.3777267
215.3244245
];

ERTarInput = [
0.35
0.4
0.45
0.5
0.55
];

ERTarBusInput = [
0.5
0.5
0.5
0.5
0.5
];


//gen cost
CGenIInput = [
2.251534687
2.141187084
2.036247612
1.985847945
1.936695732
4.984144122
4.551431709
4.156286435
3.912822911
3.683620792
4.984144122
4.551431709
4.156286435
3.912822911
3.683620792
1.474848254
1.367503639
1.267971941
1.236588055
1.205980959
1.474848254
1.367503639
1.267971941
1.236588055
1.205980959
5.048050639
4.334932847
3.722554335
3.45161381
3.200393285
2.251534687
2.141187084
2.036247612
1.985847945
1.936695732
2.3
2.3
2.3
2.3
2.3
4.984144122
4.551431709
4.156286435
3.912822911
3.683620792
1.474848254
1.367503639
1.267971941
1.236588055
1.205980959
4.984144122
4.551431709
4.156286435
3.912822911
3.683620792
1.474848254
1.367503639
1.267971941
1.236588055
1.205980959
2.251534687
2.141187084
2.036247612
1.985847945
1.936695732
3.6175283
3.475123938
3.338325339
3.239370186
3.143348278
4.984144122
4.551431709
4.156286435
3.912822911
3.683620792
1.474848254
1.367503639
1.267971941
1.236588055
1.205980959
2.251534687
2.141187084
2.036247612
1.985847945
1.936695732
3.6175283
3.475123938
3.338325339
3.239370186
3.143348278
4.984144122
4.551431709
4.156286435
3.912822911
3.683620792
4.984144122
4.551431709
4.156286435
3.912822911
3.683620792
1.474848254
1.367503639
1.267971941
1.236588055
1.205980959
1.474848254
1.367503639
1.267971941
1.236588055
1.205980959
5.048050639
4.334932847
3.722554335
3.45161381
3.200393285
2.251534687
2.141187084
2.036247612
1.985847945
1.936695732
4.984144122
4.551431709
4.156286435
3.912822911
3.683620792
4.984144122
4.551431709
4.156286435
3.912822911
3.683620792
1.474848254
1.367503639
1.267971941
1.236588055
1.205980959
1.474848254
1.367503639
1.267971941
1.236588055
1.205980959
3.6175283
3.475123938
3.338325339
3.239370186
3.143348278
1.6
1.6
1.6
1.6
1.6
4.984144122
4.551431709
4.156286435
3.912822911
3.683620792
4.984144122
4.551431709
4.156286435
3.912822911
3.683620792
1.474848254
1.367503639
1.267971941
1.236588055
1.205980959
1.474848254
1.367503639
1.267971941
1.236588055
1.205980959
5.048050639
4.334932847
3.722554335
3.45161381
3.200393285
2.251534687
2.141187084
2.036247612
1.985847945
1.936695732
3.6175283
3.475123938
3.338325339
3.239370186
3.143348278
4.984144122
4.551431709
4.156286435
3.912822911
3.683620792
4.984144122
4.551431709
4.156286435
3.912822911
3.683620792
1.474848254
1.367503639
1.267971941
1.236588055
1.205980959
1.474848254
1.367503639
1.267971941
1.236588055
1.205980959
2.251534687
2.141187084
2.036247612
1.985847945
1.936695732
4.984144122
4.551431709
4.156286435
3.912822911
3.683620792
4.984144122
4.551431709
4.156286435
3.912822911
3.683620792
1.474848254
1.367503639
1.267971941
1.236588055
1.205980959
1.474848254
1.367503639
1.267971941
1.236588055
1.205980959
5.048050639
4.334932847
3.722554335
3.45161381
3.200393285
4.984144122
4.551431709
4.156286435
3.912822911
3.683620792
1.474848254
1.367503639
1.267971941
1.236588055
1.205980959
];

CGenOMInput = [
0.036689498
0.036689498
0.036689498
0.036689498
0.036689498
0.018
0.018
0.018
0.018
0.018
0.018
0.018
0.018
0.018
0.018
0.02
0.02
0.02
0.02
0.02
0.02
0.02
0.02
0.02
0.02
0.0164
0.0164
0.0164
0.0164
0.0164
0.036689498
0.036689498
0.036689498
0.036689498
0.036689498
0.007990868
0.007990868
0.007990868
0.007990868
0.007990868
0.018
0.018
0.018
0.018
0.018
0.02
0.02
0.02
0.02
0.02
0.018
0.018
0.018
0.018
0.018
0.02
0.02
0.02
0.02
0.02
0.036689498
0.036689498
0.036689498
0.036689498
0.036689498
0.0054
0.0054
0.0054
0.0054
0.0054
0.018
0.018
0.018
0.018
0.018
0.02
0.02
0.02
0.02
0.02
0.036689498
0.036689498
0.036689498
0.036689498
0.036689498
0.0054
0.0054
0.0054
0.0054
0.0054
0.018
0.018
0.018
0.018
0.018
0.018
0.018
0.018
0.018
0.018
0.02
0.02
0.02
0.02
0.02
0.02
0.02
0.02
0.02
0.02
0.0164
0.0164
0.0164
0.0164
0.0164
0.036689498
0.036689498
0.036689498
0.036689498
0.036689498
0.018
0.018
0.018
0.018
0.018
0.018
0.018
0.018
0.018
0.018
0.02
0.02
0.02
0.02
0.02
0.02
0.02
0.02
0.02
0.02
0.0054
0.0054
0.0054
0.0054
0.0054
0.129716398
0.134825761
0.143243856
0.15565048
0.173099795
0.018
0.018
0.018
0.018
0.018
0.018
0.018
0.018
0.018
0.018
0.02
0.02
0.02
0.02
0.02
0.02
0.02
0.02
0.02
0.02
0.0164
0.0164
0.0164
0.0164
0.0164
0.036689498
0.036689498
0.036689498
0.036689498
0.036689498
0.0054
0.0054
0.0054
0.0054
0.0054
0.018
0.018
0.018
0.018
0.018
0.018
0.018
0.018
0.018
0.018
0.02
0.02
0.02
0.02
0.02
0.02
0.02
0.02
0.02
0.02
0.036689498
0.036689498
0.036689498
0.036689498
0.036689498
0.018
0.018
0.018
0.018
0.018
0.018
0.018
0.018
0.018
0.018
0.02
0.02
0.02
0.02
0.02
0.02
0.02
0.02
0.02
0.02
0.0164
0.0164
0.0164
0.0164
0.0164
0.018
0.018
0.018
0.018
0.018
0.02
0.02
0.02
0.02
0.02
];

//Transmission cost
CTrIFixInput = [
0
10.94902741
0
6.24177846
8.308020661
3.051349612
0
3.445372272
5.446995856
10.30821276
9.611942597
8.506290051
7.504511422
8.745998895
9.988924487
0
6.357086018
13.98432364
];

CTrIVarInput = [
0.020812102
0.045679812
0.017115667
0.026040967
0.034661418
0.012730361
0.011925287
0.014374241
0.0227251
0.043006305
0.040101436
0.035488607
0.031309143
0.036488682
0.041674221
0.024045232
0.026522035
0.058343198
];

CTrIDisInput = [
1.386087627
3.04227897
1.139904745
1.734330423
2.308453124
0.847843046
0.794225035
0.957325542
1.513493419
2.86422325
2.670758755
2.363543934
2.085191352
2.430149044
2.77550633
1.601414303
1.766369593
3.885661449
];

//Transmission distance
LenInput = [
34.64213921
76.03491259
28.4893524
43.34568375
57.69458792
21.18992786
19.8498664
23.92619633
37.82636011
71.58481081
66.74960137
59.07145869
52.11466265
60.73610344
69.36753116
40.02374463
44.14643068
97.11335864
];

//Transmission losses
TLossInput = [
0.995579911
0.990324101
0.996363533
0.995579911
0.994472475
0.992649415
0.997293992
0.997464904
0.994472475
0.996945097
0.990324101
0.992649415
0.996945097
0.995174609
0.990887815
0.991500676
0.995174609
0.992474656
0.993357959
0.992263413
0.991168807
0.996363533
0.997293992
0.990887815
0.992474656
0.994895012
0.993357959
0.99437065
0.987658355
0.991500676
0.992263413
0.99437065
0.997464904
0.991168807
0.994895012
0.987658355
];

DLossInput = [
0.938843822
0.870654873
0.949425834
0.938843822
0.924075944
0.900234657
0.962134711
0.96448628
0.924075944
0.957350839
0.870654873
0.900234657
0.957350839
0.933413764
0.877741578
0.885506962
0.933413764
0.897979528
0.909431952
0.895260607
0.881294057
0.949425834
0.962134711
0.877741578
0.897979528
0.929684885
0.909431952
0.922728988
0.837857411
0.885506962
0.895260607
0.922728988
0.96448628
0.881294057
0.929684885
0.837857411
];

//Existing transmission
ExTrInput = [
375.3
0
480.06
0
0
0
917.55
0
0
0
0
0
0
0
0
449.46
0
0
];

//Distribution cost
CDisIUInput = [
7.4147E-05
6.96334E-05
6.56079E-05
6.20177E-05
5.8816E-05
6.98012E-05
6.57036E-05
6.20491E-05
5.87899E-05
5.58835E-05
6.05404E-05
5.74246E-05
5.48991E-05
5.28281E-05
5.11075E-05
5.94486E-05
5.58698E-05
5.26753E-05
4.98286E-05
4.729E-05
7.52601E-05
7.02579E-05
6.57976E-05
6.18136E-05
5.82607E-05
8.14983E-05
7.61046E-05
7.12941E-05
6.69981E-05
6.31669E-05
8.64509E-05
8.0797E-05
7.57521E-05
7.1249E-05
6.72331E-05
0.000119588
0.000110041
0.000101486
9.38497E-05
8.70415E-05
0.000110632
0.000101789
9.38678E-05
8.6795E-05
8.04901E-05
5.38935E-05
5.17935E-05
4.99207E-05
4.82505E-05
4.6761E-05
];

CDisIRInput = [
0.000167105
0.00015902
0.000152439
0.000147609
0.000144501
0.000134031
0.000127905
0.000122919
0.000119259
0.000116902
0.001534329
0.001534329
0.001534329
0.001534329
0.001534329
0.00013587
0.000129322
0.000123997
0.000120093
0.000117589
0.000156888
0.000149235
0.000143011
0.000138447
0.000135519
0.000199623
0.000189727
0.000181518
0.000175498
0.000171629
0.000173042
0.000164703
0.000157917
0.000152936
0.000149731
0.000275863
0.000261316
0.000249488
0.000240819
0.000235256
0.000285972
0.00027065
0.000258193
0.000249061
0.000243203
0.000115834
0.00011095
0.000106976
0.000104061
0.000102188
];

CDisIUOffInput = [
0.1
0.1
0.1
0.1
0.1
0.2
0.2
0.2
0.2
0.2
0
0
0
0
0
0.4
0.4
0.4
0.4
0.4
0.41
0.41
0.41
0.41
0.41
0.42
0.42
0.42
0.42
0.42
0.43
0.43
0.43
0.43
0.43
0.332878253
0.250228494
0.167584392
0.084919242
0.002268557
0.3411924
0.258545038
0.175885034
0.093218352
0.06
0.05
0.05
0.05
0.05
0.05
];

CDisIROffInput = [
1.194201898
1.104590942
1.027303483
0.967819924
0.928194403
0.817408211
0.727695358
0.650314744
0.590725946
0.551007928
4.48620882
4.48620882
4.48620882
4.48620882
4.48620882
1.220445952
1.131217722
1.054334088
0.995243727
0.956028753
1.295786802
1.206526671
1.129607802
1.070480994
1.031228072
1.556739291
1.467325719
1.390240092
1.330957808
1.291536422
1.159231455
1.069616151
0.992332863
0.932846435
0.893224407
2.145740738
2.056392095
1.979382696
1.920178262
1.88084003
2.346715594
2.257414238
2.180467601
2.121299695
2.082019851
0.7
0.7
0.7
0.7
0.7
];


//Transmission match
TransLinePairMatchInput = [
1
0
0
1
0
0
0
0
0
0
0
0
0
0
0
0
0
0
0
0
0
0
0
0
0
0
0
0
0
0
0
0
0
0
0
0
0
1
0
0
0
0
0
0
0
0
1
0
0
0
0
0
0
0
0
0
0
0
0
0
0
0
0
0
0
0
0
0
0
0
0
0
0
0
1
0
0
0
0
0
0
0
0
0
0
0
0
0
0
0
0
0
0
1
0
0
0
0
0
0
0
0
0
0
0
0
0
0
0
0
0
0
1
0
0
0
1
0
0
0
0
0
0
0
0
0
0
0
0
0
0
0
0
0
0
0
0
0
0
0
0
0
0
0
0
0
0
0
0
1
0
0
0
0
0
1
0
0
0
0
0
0
0
0
0
0
0
0
0
0
0
0
0
0
0
0
0
0
0
0
0
0
0
0
0
0
1
0
0
0
0
0
0
0
0
0
0
0
0
0
0
0
1
0
0
0
0
0
0
0
0
0
0
0
0
0
0
0
0
0
0
0
0
1
0
0
0
0
0
0
0
0
0
0
0
0
0
0
0
0
0
0
0
0
0
0
0
0
1
0
0
0
0
0
0
0
0
0
0
0
0
1
0
0
1
0
0
0
0
0
0
0
0
0
0
0
0
0
0
0
0
0
0
0
0
0
0
0
0
0
0
0
0
0
0
0
0
0
0
0
0
1
0
0
1
0
0
0
0
0
0
0
0
0
0
0
0
0
0
0
0
0
0
0
0
0
0
0
0
0
0
0
0
0
0
0
0
0
1
0
0
0
0
0
0
0
0
1
0
0
0
0
0
0
0
0
0
0
0
0
0
0
0
0
0
0
0
0
0
0
0
0
0
0
0
1
0
0
0
0
0
0
0
0
0
0
0
0
0
1
0
0
0
0
0
0
0
0
0
0
0
0
0
0
0
0
0
0
0
0
0
0
0
1
0
0
0
0
0
0
1
0
0
0
0
0
0
0
0
0
0
0
0
0
0
0
0
0
0
0
0
0
0
0
0
0
0
0
0
0
1
0
0
0
0
0
0
0
1
0
0
0
0
0
0
0
0
0
0
0
0
0
0
0
0
0
0
0
0
0
0
0
0
0
0
0
0
1
0
0
0
0
0
0
0
0
0
0
1
0
0
0
0
0
0
0
0
0
0
0
0
0
0
0
0
0
0
0
0
0
0
0
0
0
1
0
0
0
0
0
0
0
0
0
0
0
0
1
0
0
0
0
0
0
0
0
0
0
0
0
0
0
0
0
0
0
0
0
0
0
0
0
0
0
0
1
0
0
0
0
0
0
0
0
1
0
0
0
0
0
0
0
0
0
0
0
0
0
0
0
0
0
0
0
0
0
0
0
0
0
0
0
0
1
0
0
0
1
0
0
0
0
0
0
0
0
0
0
0
0
0
0
0
0
0
0
0
0
0
0
0
0
0
0
0
0
0
0
0
0
1
0
0
0
0
0
0
1
];

//Distribution losses
DLossUInput = [
0.077225309
0.06971616
0.063081858
0.057219493
0.052038266
0.073150861
0.066142846
0.05995058
0.05447806
0.049639894
0.020123
0.01972054
0.019326129
0.018939607
0.018560814
0.076865906
0.069402668
0.062804341
0.056977187
0.051827074
0.090469249
0.081351388
0.073291652
0.066168844
0.059875869
0.089303252
0.080325915
0.072390709
0.065378692
0.059183352
0.087030316
0.078327278
0.070635645
0.063839427
0.057834608
0.097030316
0.088327278
0.080635645
0.073839427
0.067834608
0.077834608
0.076277916
0.074752358
0.073257311
0.071792165
0.046718525
0.043018985
0.039734548
0.036814611
0.034214568
];

DLossRInput = [
0.184551689
0.171704276
0.160766688
0.151936238
0.145102403
0.15126772
0.140683266
0.131702538
0.124466594
0.118872076
0.022249394
0.021698693
0.021161624
0.020637847
0.020127035
0.187106891
0.174127455
0.163076683
0.154154731
0.147254612
0.19461588
0.181150287
0.169673833
0.160400544
0.153223985
0.222590517
0.207403016
0.194399567
0.183852776
0.175662157
0.18119539
0.168568717
0.157824131
0.149151656
0.142441921
0.295233628
0.276593859
0.260329241
0.246912487
0.23633095
0.321514444
0.302182952
0.285118305
0.270891405
0.259564162
0.119379831
0.1111315
0.104143465
0.098513953
0.094154259
];

DLossBusInput = [
0.049007475
0.047794479
0.046611506
0.045457813
0.044332676
0.049007475
0.047794479
0.046611506
0.045457813
0.044332676
0.034305233
0.033619128
0.032946745
0.03228781
0.031642054
0.049007475
0.047794479
0.046611506
0.045457813
0.044332676
0.049007475
0.047794479
0.046611506
0.045457813
0.044332676
0.049007475
0.047794479
0.046611506
0.045457813
0.044332676
0.049007475
0.047794479
0.046611506
0.045457813
0.044332676
0.049007475
0.047794479
0.046611506
0.045457813
0.044332676
0.049007475
0.047794479
0.046611506
0.045457813
0.044332676
0.044106728
0.043224593
0.042360101
0.041512899
0.040682641
];

//Existing distribution
ExUOnInput = [
8.338234681
8.338234681
8.338234681
8.338234681
8.338234681
10.27511094
10.27511094
10.27511094
10.27511094
10.27511094
197.9950268
197.9950268
197.9950268
197.9950268
197.9950268
1.42916
1.42916
1.42916
1.42916
1.42916
3.300424888
3.300424888
3.300424888
3.300424888
3.300424888
6.442531225
6.442531225
6.442531225
6.442531225
6.442531225
16.80091333
16.80091333
16.80091333
16.80091333
16.80091333
2.727260511
2.727260511
2.727260511
2.727260511
2.727260511
0.594106593
0.594106593
0.594106593
0.594106593
0.594106593
147.7564186
147.7564186
147.7564186
147.7564186
147.7564186
];

ExUOffInput = [
0
0
0
0
0
0
0
0
0
0
0
0
0
0
0
0
0
0
0
0
0
0
0
0
0
0
0
0
0
0
0
0
0
0
0
0
0
0
0
0
0
0
0
0
0
0
0
0
0
0
];

ExROnInput = [
2.95411743
2.95411743
2.95411743
2.95411743
2.95411743
3.640325019
3.640325019
3.640325019
3.640325019
3.640325019
0
0
0
0
0
1.181438933
1.181438933
1.181438933
1.181438933
1.181438933
1.169293389
1.169293389
1.169293389
1.169293389
1.169293389
2.282496777
2.282496777
2.282496777
2.282496777
2.282496777
5.952323578
5.952323578
5.952323578
5.952323578
5.952323578
0.966229438
0.966229438
0.966229438
0.966229438
0.966229438
0.210483479
0.210483479
0.210483479
0.210483479
0.210483479
52.3479883
52.3479883
52.3479883
52.3479883
52.3479883
];

ExROffInput = [
0.06947563
0.06947563
0.06947563
0.06947563
0.06947563
0.072807486
0.072807486
0.072807486
0.072807486
0.072807486
0
0
0
0
0
0.14165653
0.14165653
0.14165653
0.14165653
0.14165653
0.092905591
0.092905591
0.092905591
0.092905591
0.092905591
0.080505359
0.080505359
0.080505359
0.080505359
0.080505359
0.099186137
0.099186137
0.099186137
0.099186137
0.099186137
0.039959415
0.039959415
0.039959415
0.039959415
0.039959415
0.043282091
0.043282091
0.043282091
0.043282091
0.043282091
0.184799245
0.184799245
0.184799245
0.184799245
0.184799245
];

ExBusInput = [
31.75315058
31.75315058
31.75315058
31.75315058
31.75315058
39.12904319
39.12904319
39.12904319
39.12904319
39.12904319
753.9924387
753.9924387
753.9924387
753.9924387
753.9924387
5.442438886
5.442438886
5.442438886
5.442438886
5.442438886
12.56847432
12.56847432
12.56847432
12.56847432
12.56847432
24.5340497
24.5340497
24.5340497
24.5340497
24.5340497
63.98020098
63.98020098
63.98020098
63.98020098
63.98020098
10.38578512
10.38578512
10.38578512
10.38578512
10.38578512
2.262440052
2.262440052
2.262440052
2.262440052
2.262440052
562.676872
562.676872
562.676872
562.676872
562.676872
];

ExTrDInput = [
1
1
1
1
0
0
1
0
0
1
0
0
1
1
1
1
1
1
];

//EnergyBalanceFactor
energyBalanceFactorTransInInput = [
0
0
0
1
0
0
0
0
0
0
1
0
0
0
0
0
0
0
0
0
0
1
0
0
0
0
0
0
0
0
0
0
0
0
0
0
1
0
0
0
0
0
0
0
1
0
0
1
0
0
0
0
0
0
0
0
0
0
0
0
0
0
0
0
0
0
0
0
0
0
0
0
0
0
0
0
0
0
0
0
0
0
0
0
0
0
0
0
0
0
0
0
0
0
1
0
0
0
0
0
0
0
0
0
1
0
0
0
0
0
0
0
1
0
0
0
0
0
0
0
1
0
0
0
0
0
0
0
0
0
0
0
0
0
0
0
0
0
0
0
0
0
0
0
0
1
0
0
0
1
0
0
0
1
0
0
0
0
0
0
1
0
0
0
0
0
0
1
0
0
0
0
0
1
0
0
0
0
0
0
0
0
0
0
0
0
0
0
0
0
0
0
0
1
0
0
0
0
0
0
0
0
0
0
1
0
1
0
0
0
1
0
0
1
0
0
0
0
1
0
0
0
1
0
0
0
0
0
0
0
1
0
0
1
0
0
0
0
0
0
0
0
0
0
0
0
0
0
0
0
1
0
0
0
0
0
0
0
0
0
0
0
0
0
0
0
0
0
0
0
1
0
0
0
0
0
0
0
0
0
0
0
0
1
0
0
0
1
0
0
0
0
0
0
0
0
0
0
0
0
0
0
0
1
0
0
0
1
0
0
0
0
0
0
0
1
0
0
0
0
0
0
0
0
0
0
0
0
0
0
0
1
0
0
0
0
0
0
0
0
0
0
0
0
1
0
0
0
0
1
0
0
1
0
0
0
0
0
0
0
];

energyBalanceFactorTransOutInput = [
1
1
1
0
0
0
0
0
0
0
0
0
0
0
0
0
0
0
0
0
0
0
0
0
0
0
0
0
0
0
0
0
0
0
0
0
0
0
0
1
1
1
0
0
0
0
0
0
0
0
0
0
0
0
0
0
0
0
0
0
0
0
0
0
0
0
0
0
0
0
0
0
0
0
0
0
0
0
1
1
0
0
0
0
0
0
0
0
0
0
0
0
0
0
0
0
0
0
0
0
0
0
0
0
0
0
0
0
0
0
0
0
0
0
0
0
1
1
0
0
0
0
0
0
0
0
0
0
0
0
0
0
0
0
0
0
0
0
0
0
0
0
0
0
0
0
0
0
0
0
0
0
0
0
1
1
1
1
1
1
0
0
0
0
0
0
0
0
0
0
0
0
0
0
0
0
0
0
0
0
0
0
0
0
0
0
0
0
0
0
0
0
0
0
0
0
1
1
1
1
1
0
0
0
0
0
0
0
0
0
0
0
0
0
0
0
0
0
0
0
0
0
0
0
0
0
0
0
0
0
0
0
0
0
0
0
0
1
1
1
1
1
0
0
0
0
0
0
0
0
0
0
0
0
0
0
0
0
0
0
0
0
0
0
0
0
0
0
0
0
0
0
0
0
0
0
0
0
1
1
1
0
0
0
0
0
0
0
0
0
0
0
0
0
0
0
0
0
0
0
0
0
0
0
0
0
0
0
0
0
0
0
0
0
0
0
0
1
1
1
0
0
0
0
0
0
0
0
0
0
0
0
0
0
0
0
0
0
0
0
0
0
0
0
0
0
0
0
0
0
0
0
0
0
0
0
1
1
1
1
];

//District and GenTech plant match
districtPlantMatchInput = [
1
1
1
1
1
1
0
0
0
0
0
0
0
0
0
0
0
0
0
0
0
0
0
0
0
0
0
0
0
0
0
0
0
0
0
0
0
0
0
0
0
0
0
0
0
0
0
0
0
0
0
0
0
0
0
1
1
1
1
0
0
0
0
0
0
0
0
0
0
0
0
0
0
0
0
0
0
0
0
0
0
0
0
0
0
0
0
0
0
0
0
0
0
0
0
0
0
0
0
0
0
0
0
0
0
0
0
0
1
1
0
0
0
0
0
0
0
0
0
0
0
0
0
0
0
0
0
0
0
0
0
0
0
0
0
0
0
0
0
0
0
0
0
0
0
0
0
0
0
0
0
0
0
0
0
0
0
0
0
1
1
1
1
0
0
0
0
0
0
0
0
0
0
0
0
0
0
0
0
0
0
0
0
0
0
0
0
0
0
0
0
0
0
0
0
0
0
0
0
0
0
0
0
0
0
0
0
0
0
0
0
0
1
1
1
1
1
1
1
0
0
0
0
0
0
0
0
0
0
0
0
0
0
0
0
0
0
0
0
0
0
0
0
0
0
0
0
0
0
0
0
0
0
0
0
0
0
0
0
0
0
0
0
0
0
0
0
0
1
1
1
1
1
0
0
0
0
0
0
0
0
0
0
0
0
0
0
0
0
0
0
0
0
0
0
0
0
0
0
0
0
0
0
0
0
0
0
0
0
0
0
0
0
0
0
0
0
0
0
0
0
0
1
1
1
1
1
1
1
0
0
0
0
0
0
0
0
0
0
0
0
0
0
0
0
0
0
0
0
0
0
0
0
0
0
0
0
0
0
0
0
0
0
0
0
0
0
0
0
0
0
0
0
0
0
0
0
0
1
1
1
1
1
1
0
0
0
0
0
0
0
0
0
0
0
0
0
0
0
0
0
0
0
0
0
0
0
0
0
0
0
0
0
0
0
0
0
0
0
0
0
0
0
0
0
0
0
0
0
0
0
0
0
1
1
1
1
1
1
0
0
0
0
0
0
0
0
0
0
0
0
0
0
0
0
0
0
0
0
0
0
0
0
0
0
0
0
0
0
0
0
0
0
0
0
0
0
0
0
0
0
0
0
0
0
0
0
0
1
1
];

genTechPlantMatchInput = [
1
0
0
0
0
0
1
0
0
0
0
0
1
0
0
0
1
0
0
0
0
0
0
1
0
0
0
0
0
0
0
0
0
0
0
1
0
0
0
0
0
1
0
0
0
0
0
0
0
0
0
0
0
0
0
0
0
0
0
0
0
0
0
0
0
0
0
0
0
0
0
0
0
0
0
0
0
0
0
0
0
0
0
0
0
0
0
0
0
0
0
0
0
0
0
0
0
0
0
0
0
0
0
0
0
0
0
0
0
0
0
0
0
0
0
0
0
0
0
0
0
0
0
0
0
0
0
0
0
0
0
0
0
0
0
0
0
0
0
0
0
0
0
0
0
0
0
0
0
0
0
0
0
0
0
0
0
0
0
0
0
0
0
0
0
0
0
0
0
0
0
0
0
0
0
0
0
0
0
0
0
0
0
0
0
0
0
0
0
0
0
0
0
0
0
0
0
0
0
0
0
0
0
1
0
0
0
0
0
0
0
0
0
0
0
0
0
0
0
0
0
0
0
0
0
0
0
0
0
0
0
0
0
0
0
0
0
0
0
0
0
0
0
0
0
0
0
0
0
0
0
0
0
0
0
0
0
0
1
0
0
0
1
0
0
0
0
0
0
0
0
0
0
1
0
0
0
0
0
0
0
1
0
0
0
0
0
0
0
0
0
0
0
0
0
0
0
0
0
0
0
0
0
0
0
0
0
0
0
0
0
0
0
0
0
0
0
0
0
0
0
0
0
0
0
0
0
0
0
0
0
0
0
0
0
0
0
0
0
0
0
0
0
0
0
0
0
0
0
0
0
0
0
0
0
0
0
0
0
0
0
0
0
0
0
0
0
0
0
0
0
0
0
0
0
0
0
0
0
0
0
0
0
0
0
0
0
0
0
0
0
0
0
0
0
0
0
0
0
0
0
0
0
0
0
0
0
0
0
0
0
0
0
0
0
0
0
0
0
0
0
1
0
0
0
0
0
0
0
0
0
0
0
0
0
0
0
0
0
0
0
0
0
0
0
0
0
0
0
0
0
0
0
0
0
0
0
0
0
0
0
0
0
0
0
0
0
0
0
0
0
0
0
0
0
0
0
0
0
0
0
0
0
0
0
0
0
0
0
0
0
1
0
0
0
0
0
0
0
0
1
0
0
0
0
0
0
0
1
0
0
0
0
0
1
0
0
0
0
0
1
0
0
0
0
0
0
1
0
0
0
0
1
0
0
0
0
1
0
0
0
1
0
0
0
0
0
1
0
0
0
0
0
1
0
0
0
0
1
0
0
0
0
0
1
0
0
0
0
0
1
0
0
0
0
0
0
1
0
0
0
0
1
0
0
0
0
0
0
0
0
0
0
0
0
0
0
0
0
0
0
0
0
0
0
0
0
0
0
0
0
0
0
0
0
0
0
0
0
0
0
0
0
0
0
0
0
0
0
0
0
0
0
0
0
0
0
0
0
0
1
0
0
0
0
0
0
0
1
0
0
0
0
0
0
0
0
1
0
0
0
0
0
1
0
0
0
0
0
1
0
0
0
0
0
0
1
0
0
0
0
1
0
0
0
1
0
0
0
0
1
0
0
0
0
1
0
0
0
0
0
1
0
0
0
0
0
1
0
0
0
0
0
1
0
0
0
0
0
1
0
0
0
0
0
0
1
0
0
0
0
1
0
0
0
0
0
0
0
0
0
0
0
0
0
0
0
0
0
0
0
0
0
0
0
0
0
0
0
0
0
0
0
0
0
0
0
0
0
0
0
0
0
0
0
0
0
0
0
0
0
0
0
0
0
0
0
0
0
1
0
0
0
0
0
0
0
0
0
0
0
0
0
0
0
0
1
0
0
0
0
0
0
0
0
0
0
0
1
0
0
0
0
0
0
0
0
0
0
0
1
0
0
0
0
0
0
0
0
0
0
0
0
0
0
0
0
0
0
0
0
0
0
0
0
0
0
0
0
0
0
0
0
0
0
0
0
0
0
0
0
0
0
0
0
0
0
0
0
0
0
0
0
0
0
0
0
0
0
0
0
0
0
0
0
0
0
0
0
0
0
0
0
0
0
0
0
0
0
0
0
0
0
0
0
0
0
0
0
0
0
0
0
0
0
0
0
0
0
0
0
0
0
0
0
0
0
0
0
0
0
0
0
0
0
0
0
0
0
0
0
0
0
0
0
0
0
0
0
0
0
0
0
0
0
0
0
0
0
0
0
0
0
0
0
0
0
0
0
0
];


//Shortest path to grid parameter
//shortestPathToGridInput[CellXTransLine] = [];
SPGridInput = [
0
0
0
1
0
0
0
0
0
0
0
0
0
0
0
0
0
0
0
0
0
1
0
0
0
0
0
0
0
0
0
0
0
0
0
0
0
0
0
0
1
0
0
0
0
0
0
0
0
0
0
0
0
0
0
0
0
0
1
0
0
0
0
0
0
0
0
0
0
0
0
0
0
0
0
0
1
0
0
0
0
0
0
0
0
0
0
0
0
0
0
0
0
0
1
0
0
0
0
0
0
0
0
0
0
0
0
0
0
0
0
0
0
0
0
0
0
0
0
1
0
0
0
0
0
0
0
0
0
0
0
0
0
0
0
0
0
1
0
0
0
0
0
0
0
0
0
0
0
0
0
0
0
0
0
1
0
0
0
0
0
0
0
0
0
0
0
0
0
0
0
0
0
0
0
0
0
0
0
1
0
0
0
0
0
0
0
0
0
0
0
0
0
0
0
0
0
1
0
0
0
0
0
0
0
0
0
0
0
0
0
0
0
0
0
1
0
0
0
0
0
0
0
0
0
0
0
0
0
0
0
0
1
0
0
0
0
0
0
0
0
0
0
0
0
0
0
0
0
0
1
0
0
0
0
0
0
0
0
0
0
0
0
0
0
0
0
0
1
0
0
0
0
0
0
0
0
0
0
0
0
0
0
0
0
0
1
0
];

//Population data
PopUInput = [
194712.09
247267.39
314008.05
398762.88
506394.13
170271.17
216229.56
274592.71
348708.82
442829.84
2268605.8
3095710.9
4146081
5460245.4
7087453.1
23611.032
29983.954
38077.01
48354.487
61405.987
35417.214
44976.777
57116.589
72533.094
92110.712
128053.72
162617.07
206509.51
262249.09
333033.51
215790.84
274035.58
348001.32
441931.36
561214.34
52422.485
66571.99
84540.63
107359.24
136336.88
33056.777
41979.227
53309.963
67699.009
85971.846
1575713.017
2001018.294
2541118.955
3226999.753
4098008.63
];

PopRInput = [
335458.26
379579.56
422226.7
458224.78
483790.49
345716.17
391186.64
435137.87
472236.73
498584.21
1
1
1
1
1
546159.63
617993.52
687427.32
746035.8
787659.34
397165.18
449402.51
499894.5
542514.36
572782.85
377895.35
427598.21
475640.41
516192.42
544992.32
506042.27
572599.71
636933.35
691236.83
729802.98
183022.94
207095.12
230363
250003.22
263951.64
181518.06
205392.31
228468.88
247947.61
261781.34
950467.8604
1072496.42
1188683.525
1283610.792
1345777.653
];

PopTotInput = [
8521100.865
10503735.74
12868132.29
15642846.67
18893882.8
];

//CO2 Emissions
CO2EmInput = [
45
499
499
26
26
26
400
27
733
85
85
85
85
85
85
32
32
26
26
26];

//Discount factor
//Discount factor
DFInput = [
1
1.276281563
1.628894627
2.078928179
2.653297705
];

discountFactorAllTimeInput = [
1
1.05
1.1025
1.157625
1.21550625
1.276281563
1.340095641
1.407100423
1.477455444
1.551328216
1.628894627
1.710339358
1.795856326
1.885649142
1.979931599
2.078928179
2.182874588
2.292018318
2.406619234
2.526950195
2.653297705
];



SheetConnection ResultSheet("InputData10Disv2.xlsx");
//SheetConnection ResultSheet("UgandaOptOutputBin_Med.xlsx");

//return model result



genLong to SheetWrite(ResultSheet,"'Supply Res Raw'!G2:G246");
genCCLong to SheetWrite(ResultSheet,"'Supply Res Raw'!H2:H246");
xGenLong to SheetWrite(ResultSheet,"'Supply Res Raw'!R2:R146");
transLong to SheetWrite(ResultSheet,"'Trans Res'!L2:L181");
xTransLong to SheetWrite(ResultSheet,"'Trans Res Raw'!D2:D71");
transCCLong to SheetWrite(ResultSheet,"'Trans Res Raw'!M2:M91");
//existInterTransLong to SheetWrite(ResultSheet,"'Trans Res'!M2:M2781");
transDLong to SheetWrite(ResultSheet,"'Trans Res'!X2:X181");
elUpLong to SheetWrite(ResultSheet,"'Distr Res'!R2:R51");
elDownLong to SheetWrite(ResultSheet,"'Distr Res'!S2:S51");
elBusLong to SheetWrite(ResultSheet,"'Distr Res'!Q2:Q51");
elUOnLong to SheetWrite(ResultSheet,"'Distr Res'!M2:M51");
elROnLong to SheetWrite(ResultSheet,"'Distr Res'!O2:O51");
elUOffLong to SheetWrite(ResultSheet,"'Distr Res'!N2:N51");
elROffLong to SheetWrite(ResultSheet,"'Distr Res'!P2:P51");
disRLong to SheetWrite(ResultSheet,"'Distr Res'!AK2:AK51");
disULong to SheetWrite(ResultSheet,"'Distr Res'!AL2:AL51");
disBusLong to SheetWrite(ResultSheet,"'Distr Res'!AM2:AM51");
erULong to SheetWrite(ResultSheet,"'ER res'!D2:D51");
erRLong to SheetWrite(ResultSheet,"'ER res'!E2:E51");
erTotLong to SheetWrite(ResultSheet,"'ER res'!F2:F51");
erBusLong to SheetWrite(ResultSheet,"'ER res'!G2:G51");


//generationLong to SheetWrite(ResultSheet,namePath); 
